h -1 0
1094250417609714464 -2 0
1653901841321415620 -3 0
2860534526500740036 -4 0
1642731099183711452 -5 0
1111811517226396509 -6 0
324319465851682672 -7 0
1013197013770949172 -8 0
1858468866109435876 -9 0
2594911703450190449 -10 0
1688411805429450646 -11 0
1930003643316499602 -12 0
h 1 0
674202173939365117 -13 0
